TITL Unknown Structure 1 in Pbcn
CELL  0.71073  24.4603  10.1791  15.4796   90.000   90.000   90.000
ZERR     4.00   0.0009   0.0003   0.0006    0.000    0.000    0.000
LATT   1
SYMM  1/2 - X, 1/2 - Y, 1/2 + Z
SYMM  1/2 + X, 1/2 - Y, - Z
SYMM  - X,   Y, 1/2 - Z
SFAC  C    N    H
UNIT  104 12 76
MERG   2
OMIT    -2.00  50.00
FMAP   2
PLAN   20
BOND
L.S.   4

TEMP -163

REM # Methodology
REM    1) Ran xprep to generate ins file
REM    2) Ran shelxs for inital run
REM    3) Initially refined by selecting only large Q peaks and marking them as
REM    carbon
REM    4) Selected Nitrogens based on bond lengths, extraneous q peaks +
REM    electronegativity
REM    5) Ansisotropically refined structure
REM    6) Placed Hydrogens

REM # Notes on Structure
REM    1) Double bond carbon C24, C26
REM    2) Cynaide group on N2, C25

WGHT    0.149100   16.773901
FVAR       1.01675
MOLE  1
C1    1    0.563766   -0.290018    1.536832    11.00000    0.01370    0.02862 =
         0.01843   -0.00198   -0.00255   -0.00304
C2    1    0.525830   -0.231194    1.483281    11.00000    0.01364    0.02118 =
         0.01687   -0.00072    0.00063   -0.00060
C3    1    0.506016   -0.299847    1.412041    11.00000    0.01143    0.02087 =
         0.01542    0.00173    0.00236   -0.00218
C4    1    0.527788   -0.424493    1.397263    11.00000    0.01691    0.02079 =
         0.01935   -0.00405    0.00024    0.00124
C5    1    0.566441   -0.473788    1.453738    11.00000    0.01733    0.02298 =
         0.02749    0.00077   -0.00204    0.00399
C6    1    0.380420   -0.274865    1.258511    11.00000    0.01365    0.01607 =
         0.00973   -0.00012    0.00000    0.00092
C7    1    0.379851   -0.157438    1.210529    11.00000    0.01479    0.01639 =
         0.01107   -0.00027    0.00092   -0.00343
C8    1    0.336822   -0.127302    1.156770    11.00000    0.01918    0.01511 =
         0.01056    0.00275    0.00068    0.00026
C9    1    0.292641   -0.213783    1.146608    11.00000    0.01355    0.01790 =
         0.00819   -0.00066    0.00093    0.00003
C10   1    0.293002   -0.331222    1.193368    11.00000    0.01633    0.01577 =
         0.01568    0.00098   -0.00099   -0.00321
C11   1    0.336145   -0.360286    1.247447    11.00000    0.01908    0.01431 =
         0.01476    0.00265   -0.00313   -0.00190
C12   1    0.305285   -0.122151    0.966121    11.00000    0.01398    0.01867 =
         0.01169   -0.00178   -0.00072    0.00139
C13   1    0.313118   -0.048261    0.892062    11.00000    0.01754    0.02192 =
         0.01096   -0.00156    0.00301   -0.00157
C14   1    0.273954    0.041420    0.865388    11.00000    0.02379    0.02107 =
         0.00868    0.00082   -0.00159   -0.00523
C15   1    0.226664    0.056245    0.913648    11.00000    0.01806    0.01681 =
         0.01284   -0.00129   -0.00549    0.00124
C16   1    0.218769   -0.015123    0.988716    11.00000    0.01373    0.01772 =
         0.01151   -0.00131    0.00124   -0.00164
C17   1    0.257904   -0.105387    1.015410    11.00000    0.01324    0.01421 =
         0.00824   -0.00035   -0.00250   -0.00202
C18   1    0.172988   -0.213714    1.191242    11.00000    0.02069    0.02471 =
         0.01204   -0.00046   -0.00117    0.00124
C19   1    0.195314   -0.228013    1.109102    11.00000    0.01191    0.01342 =
         0.01362    0.00287    0.00021    0.00109
C20   1    0.164228   -0.286669    1.044260    11.00000    0.01555    0.01690 =
         0.01379    0.00047   -0.00110    0.00399
C21   1    0.111845   -0.329444    1.062033    11.00000    0.01789    0.01528 =
         0.02555    0.00209   -0.00670    0.00022
C22   1    0.089335   -0.314673    1.143706    11.00000    0.01364    0.02228 =
         0.03095    0.01222    0.00137   -0.00046
C23   1    0.120411   -0.257181    1.207973    11.00000    0.02011    0.03435 =
         0.01792    0.00938    0.00653    0.00443
C24   1    0.463248   -0.242560    1.355264    11.00000    0.01544    0.01814 =
         0.01016    0.00080    0.00111    0.00132
C25   1    0.463268   -0.101372    1.350679    11.00000    0.01363    0.02043 =
         0.01413    0.00006   -0.00230   -0.00204
C26   1    0.424198   -0.315070    1.316474    11.00000    0.01775    0.01710 =
         0.01024    0.00079    0.00035    0.00085
N1    2    0.584759   -0.409653    1.523883    11.00000    0.01826    0.02758 =
         0.02713    0.00298   -0.00341    0.00165
N2    2    0.463999    0.011690    1.351300    11.00000    0.02622    0.02252 =
         0.02567   -0.00149   -0.00916   -0.00240
N3    2    0.249258   -0.181728    1.091380    11.00000    0.01282    0.02019 =
         0.01222    0.00392   -0.00065   -0.00227
H1    3    0.577463   -0.247025    1.588729    11.00000    0.02043
H2    3    0.511277   -0.143636    1.498184    11.00000    0.02453
H3    3    0.515560   -0.477704    1.347404    11.00000    0.03807
H4    3    0.582153   -0.563581    1.442992    11.00000    0.02689
H5    3    0.410888   -0.096830    1.215930    11.00000    0.01435
H6    3    0.336580   -0.047705    1.126184    11.00000    0.01630
H7    3    0.262221   -0.392434    1.187430    11.00000    0.01966
H8    3    0.335928   -0.447265    1.280189    11.00000    0.02058
H9    3    0.333979   -0.183600    0.984358    11.00000    0.01324
H10   3    0.346141   -0.061624    0.857917    11.00000    0.02524
H11   3    0.280125    0.091730    0.811180    11.00000    0.01934
H12   3    0.198094    0.120901    0.894955    11.00000    0.01787
H13   3    0.185908   -0.003426    1.021601    11.00000    0.00916
H14   3    0.195701   -0.172772    1.236481    11.00000    0.02989
H15   3    0.179582   -0.298395    0.986670    11.00000    0.02131
H16   3    0.090430   -0.373751    1.015250    11.00000    0.02568
H17   3    0.052396   -0.346343    1.155262    11.00000    0.03374
H18   3    0.105802   -0.245405    1.266778    11.00000    0.03405
H19   3    0.423696   -0.412338    1.333262    11.00000    0.02332
HKLF    4

REM  Unknown Structure 1 in Pbcn
REM wR2 = 0.1410, GooF = S = 0.524, Restrained GooF = 0.524 for all data
REM R1 = 0.0421 for 2671 Fo > 4sig(Fo) and 0.0600 for all 3395 data
REM 338 parameters refined using 0 restraints

END

REM Q Peak Info
REM Left in Q peaks for reference
REM I think these look very small and can be explained by bonds

WGHT      0.0388      1.1014

REM Highest difference peak  0.194,  deepest hole -0.215,  1-sigma level  0.045
Q1    1   0.5662 -0.4303  1.4023  11.00000  0.05    0.19
Q2    1   0.6271 -0.4195  1.5598  11.00000  0.05    0.19
Q3    1   0.3492 -0.2828  1.2812  11.00000  0.05    0.16
Q4    1   0.4940 -0.0570  1.3459  11.00000  0.05    0.16
Q5    1   0.3394 -0.0839  1.2459  11.00000  0.05    0.15
Q6    1   0.3226 -0.4165  1.3174  11.00000  0.05    0.15
Q7    1   0.2891 -0.0743  1.2057  11.00000  0.05    0.15
Q8    1   0.2767 -0.1467  0.9817  11.00000  0.05    0.15
Q9    1   0.3026 -0.3241  1.2577  11.00000  0.05    0.15
Q10   1   0.1905 -0.0717  0.9149  11.00000  0.05    0.15
Q11   1   0.6387 -0.5209  1.3608  11.00000  0.05    0.14
Q12   1   0.3031 -0.1604  1.1778  11.00000  0.05    0.14
Q13   1   0.2897 -0.0706  1.0206  11.00000  0.05    0.14
Q14   1   0.4307 -0.4329  1.2823  11.00000  0.05    0.14
Q15   1   0.0926 -0.3259  1.2756  11.00000  0.05    0.13
Q16   1   0.4151  0.0395  1.3816  11.00000  0.05    0.13
Q17   1   0.4092 -0.3009  1.2748  11.00000  0.05    0.13
Q18   1   0.1307 -0.2672  1.0430  11.00000  0.05    0.13
Q19   1   0.3692 -0.1867  1.2606  11.00000  0.05    0.13
Q20   1   0.2632  0.0757  0.9025  11.00000  0.05    0.13
