TITL Unknown Structure 1 in Pbcn
    structure_1.res
    created by SHELXL-2018/3 at 19:01:47 on 26-Feb-2021
CELL  0.71073  24.4603  10.1791  15.4796   90.000   90.000   90.000
ZERR     4.00   0.0009   0.0003   0.0006    0.000    0.000    0.000
LATT   1
SYMM  1/2 - X, 1/2 - Y, 1/2 + Z
SYMM  1/2 + X, 1/2 - Y, - Z
SYMM  - X,   Y, 1/2 - Z
SFAC  C    N
UNIT  108 8
MERG   2
OMIT    -2.00  50.00
FMAP   2
PLAN   20
BOND
L.S.   4
WGHT    0.149100   16.773901
FVAR       1.00525
MOLE  1
C1    1    0.563872   -0.289847    1.537116    11.00000    0.01138    0.02752 =
         0.02184    0.00132   -0.00057   -0.00101
C2    1    0.525699   -0.231111    1.483357    11.00000    0.01195    0.02404 =
         0.01507    0.00071   -0.00076   -0.00186
C3    1    0.506098   -0.299846    1.412120    11.00000    0.01072    0.02022 =
         0.01430    0.00054    0.00327   -0.00238
C4    1    0.527491   -0.424933    1.396951    11.00000    0.01481    0.02058 =
         0.02112   -0.00032    0.00165    0.00346
C5    1    0.566727   -0.473953    1.453744    11.00000    0.01556    0.02595 =
         0.02458    0.00109   -0.00242    0.00212
C6    1    0.380437   -0.274771    1.258681    11.00000    0.01316    0.01507 =
         0.00893    0.00038   -0.00037    0.00019
C7    1    0.379881   -0.157028    1.210617    11.00000    0.01565    0.01606 =
         0.00852   -0.00001    0.00056   -0.00115
C8    1    0.336842   -0.126744    1.156479    11.00000    0.01716    0.01764 =
         0.01148    0.00035    0.00198    0.00084
C9    1    0.292717   -0.214000    1.146353    11.00000    0.01321    0.01723 =
         0.00793   -0.00042    0.00057   -0.00005
C10   1    0.292917   -0.331437    1.193336    11.00000    0.01801    0.01548 =
         0.01463    0.00087   -0.00140   -0.00116
C11   1    0.336071   -0.360825    1.247685    11.00000    0.01689    0.01492 =
         0.01415    0.00138   -0.00283   -0.00151
C12   1    0.305495   -0.122388    0.966183    11.00000    0.01468    0.02078 =
         0.00846   -0.00281    0.00128   -0.00049
C13   1    0.313348   -0.048087    0.891947    11.00000    0.01930    0.01928 =
         0.01066   -0.00084    0.00069   -0.00173
C14   1    0.274103    0.041761    0.865197    11.00000    0.02291    0.02006 =
         0.01006   -0.00143   -0.00163   -0.00493
C15   1    0.226548    0.056533    0.913420    11.00000    0.01819    0.01791 =
         0.01116   -0.00201   -0.00357   -0.00107
C16   1    0.218656   -0.014982    0.988936    11.00000    0.01808    0.01389 =
         0.01060   -0.00092   -0.00145   -0.00214
C17   1    0.257822   -0.105294    1.015455    11.00000    0.01173    0.01420 =
         0.00865   -0.00077   -0.00318   -0.00106
C18   1    0.172947   -0.213335    1.191280    11.00000    0.01940    0.02444 =
         0.01322    0.00084    0.00117    0.00248
C19   1    0.195258   -0.228057    1.109106    11.00000    0.01232    0.01306 =
         0.01153    0.00344   -0.00120    0.00149
C20   1    0.164308   -0.286787    1.043758    11.00000    0.01358    0.01399 =
         0.01837    0.00056   -0.00334    0.00325
C21   1    0.111529   -0.329572    1.061850    11.00000    0.01729    0.01562 =
         0.02409    0.00437   -0.00439    0.00220
C22   1    0.089066   -0.314787    1.143844    11.00000    0.01485    0.02090 =
         0.03177    0.01193    0.00103    0.00055
C23   1    0.120248   -0.256868    1.208450    11.00000    0.02029    0.03217 =
         0.01924    0.00994    0.00452    0.00404
C24   1    0.463367   -0.242678    1.355343    11.00000    0.01360    0.01753 =
         0.01019    0.00132    0.00050    0.00035
C25   1    0.463215   -0.101348    1.350755    11.00000    0.01347    0.02089 =
         0.01246   -0.00015   -0.00173   -0.00204
C26   1    0.424037   -0.315405    1.316396    11.00000    0.01690    0.01977 =
         0.00823   -0.00033    0.00045    0.00047
N1    2    0.584611   -0.409984    1.523934    11.00000    0.01623    0.02646 =
         0.02777    0.00269   -0.00323    0.00094
N2    2    0.464087    0.011406    1.351513    11.00000    0.02684    0.02122 =
         0.02572   -0.00124   -0.00972   -0.00256
N3    2    0.249274   -0.181740    1.091171    11.00000    0.01179    0.02075 =
         0.01102    0.00424   -0.00034   -0.00225
HKLF    4




REM  Unknown Structure 1 in Pbcn
REM wR2 = 0.2499, GooF = S = 0.940, Restrained GooF = 0.940 for all data
REM R1 = 0.0837 for 2671 Fo > 4sig(Fo) and 0.1018 for all 3395 data
REM 262 parameters refined using 0 restraints

END  
     
WGHT      0.1407     11.6667 

REM Highest difference peak  0.879,  deepest hole -0.268,  1-sigma level  0.103
Q1    1   0.1862 -0.0024  1.0233  11.00000  0.05    0.88
Q2    1   0.3366 -0.1816  0.9853  11.00000  0.05    0.83
Q3    1   0.1987  0.1233  0.8947  11.00000  0.05    0.82
Q4    1   0.2605 -0.3969  1.1847  11.00000  0.05    0.81
Q5    1   0.3387 -0.0455  1.1223  11.00000  0.05    0.79
Q6    1   0.4113 -0.0943  1.2161  11.00000  0.05    0.79
Q7    1   0.1796 -0.3002  0.9851  11.00000  0.05    0.77
Q8    1   0.3350 -0.4492  1.2808  11.00000  0.05    0.76
Q9    1   0.3484 -0.0589  0.8569  11.00000  0.05    0.76
Q10   1   0.0510 -0.3483  1.1585  11.00000  0.05    0.75
Q11   1   0.1976 -0.1683  1.2386  11.00000  0.05    0.75
Q12   1   0.2808  0.0946  0.8102  11.00000  0.05    0.74
Q13   1   0.5788 -0.2474  1.5939  11.00000  0.05    0.73
Q14   1   0.4224 -0.4169  1.3374  11.00000  0.05    0.73
Q15   1   0.5173 -0.4761  1.3437  11.00000  0.05    0.71
Q16   1   0.0871 -0.3756  1.0152  11.00000  0.05    0.70
Q17   1   0.5083 -0.1415  1.4982  11.00000  0.05    0.69
Q18   1   0.5838 -0.5623  1.4413  11.00000  0.05    0.69
Q19   1   0.1075 -0.2390  1.2706  11.00000  0.05    0.60
Q20   1   0.5541 -0.4345  1.3997  11.00000  0.05    0.22
