TITL   Unknown Structure 1 in Pbcn
    shelx.res
    created by SHELXL-2018/3 at 17:54:34 on 26-Feb-2021
CELL   0.71073   24.4603   10.1791   15.4796   90.000   90.000   90.000
ZERR     4        0.0009    0.0003    0.0006    0.000    0.000    0.000
LATT    1
SYMM   1/2-X,1/2-Y,1/2+Z
SYMM   1/2+X,1/2-Y,-Z
SYMM   -X,+Y,1/2-Z
SFAC  C
UNIT  116

OMIT -2 50

L.S. 4
BOND
FMAP 2
PLAN 20

WGHT    0.100000
FVAR       1.01542
MOLE   1
C1    1    0.226718    0.056271    0.913757    11.00000    0.01719
C2    1    0.380283   -0.274861    1.258679    11.00000    0.01362
C3    1    0.249396   -0.181656    1.091233    11.00000    0.00331
C4    1    0.257816   -0.105263    1.015490    11.00000    0.01426
C5    1    0.463699    0.011152    1.351509    11.00000    0.01211
C6    1    0.337270   -0.126468    1.156381    11.00000    0.01619
C7    1    0.305525   -0.122509    0.965994    11.00000    0.01575
C8    1    0.527289   -0.425288    1.396891    11.00000    0.01978
C9    1    0.584662   -0.410175    1.523948    11.00000    0.01107
C10   1    0.218636   -0.014927    0.988897    11.00000    0.01590
C11   1    0.506053   -0.299684    1.412178    11.00000    0.01636
C12   1    0.274334    0.041546    0.865171    11.00000    0.01965
C13   1    0.292506   -0.214370    1.146180    11.00000    0.01425
C14   1    0.423912   -0.315362    1.316155    11.00000    0.01603
C15   1    0.292547   -0.331432    1.193361    11.00000    0.01830
C16   1    0.463499   -0.242440    1.355583    11.00000    0.01450
C17   1    0.525931   -0.231460    1.483406    11.00000    0.01848
C18   1    0.462942   -0.100597    1.351099    11.00000    0.01836
C19   1    0.088603   -0.314875    1.143983    11.00000    0.02412
C20   1    0.164368   -0.286667    1.043741    11.00000    0.01662
C21   1    0.313225   -0.047522    0.891847    11.00000    0.01883
C22   1    0.566938   -0.474137    1.453880    11.00000    0.02429
C23   1    0.563872   -0.289527    1.537033    11.00000    0.02385
C24   1    0.336051   -0.360329    1.248047    11.00000    0.01676
C25   1    0.111531   -0.329773    1.061195    11.00000    0.02063
C26   1    0.120267   -0.256931    1.208871    11.00000    0.02500
C27   1    0.379777   -0.157284    1.210562    11.00000    0.01501
C28   1    0.195121   -0.228545    1.109491    11.00000    0.01341
C29   1    0.173068   -0.213478    1.190944    11.00000    0.01944
HKLF   4




REM    Unknown Structure 1 in Pbcn
REM wR2 = 0.3244, GooF = S = 2.273, Restrained GooF = 2.273 for all data
REM R1 = 0.1050 for 2671 Fo > 4sig(Fo) and 0.1257 for all 3395 data
REM 117 parameters refined using 0 restraints

END  
     
WGHT      0.1744     17.0875 

REM Highest difference peak  0.896,  deepest hole -0.385,  1-sigma level  0.124
Q1    1   0.1872 -0.0006  1.0220  11.00000  0.05    0.90
Q2    1   0.3337 -0.1806  0.9826  11.00000  0.05    0.84
Q3    1   0.4110 -0.0965  1.2163  11.00000  0.05    0.82
Q4    1   0.3334 -0.4514  1.2815  11.00000  0.05    0.82
Q5    1   0.2431 -0.1424  1.1003  11.00000  0.05    0.80
Q6    1   0.2609 -0.3965  1.1876  11.00000  0.05    0.79
Q7    1   0.1789 -0.2966  0.9856  11.00000  0.05    0.79
Q8    1   0.1982  0.1202  0.8940  11.00000  0.05    0.78
Q9    1   0.2529 -0.2222  1.0859  11.00000  0.05    0.77
Q10   1   0.4778  0.0167  1.3360  11.00000  0.05    0.76
Q11   1   0.5835 -0.3681  1.5385  11.00000  0.05    0.75
Q12   1   0.3388 -0.0414  1.1249  11.00000  0.05    0.74
Q13   1   0.0486 -0.3536  1.1604  11.00000  0.05    0.74
Q14   1   0.4216 -0.4205  1.3388  11.00000  0.05    0.73
Q15   1   0.3495 -0.0585  0.8570  11.00000  0.05    0.73
Q16   1   0.2829  0.0896  0.8062  11.00000  0.05    0.72
Q17   1   0.5106 -0.1418  1.4956  11.00000  0.05    0.72
Q18   1   0.1979 -0.1710  1.2398  11.00000  0.05    0.71
Q19   1   0.5169 -0.4747  1.3451  11.00000  0.05    0.70
Q20   1   0.5823 -0.5630  1.4460  11.00000  0.05    0.69
