TITL   Unknown Structure 1 in Pbcn
    structure_1.res
    created by SHELXL-2018/3 at 18:47:20 on 26-Feb-2021
CELL   0.71073   24.4603   10.1791   15.4796   90.000   90.000   90.000
ZERR     4        0.0009    0.0003    0.0006    0.000    0.000    0.000
LATT    1
SYMM   1/2-X,1/2-Y,1/2+Z
SYMM   1/2+X,1/2-Y,-Z
SYMM   -X,+Y,1/2-Z
SFAC  C   N
UNIT  108 8

OMIT -2 50

L.S. 4
BOND
FMAP 2
PLAN 20

WGHT    0.100000
FVAR       0.98210
MOLE   1
C1    1    0.226837    0.056332    0.913532    11.00000    0.01484
C2    1    0.380308   -0.274939    1.258793    11.00000    0.01132
C4    1    0.257711   -0.105021    1.015581    11.00000    0.01071
C6    1    0.337150   -0.126425    1.156206    11.00000    0.01441
C7    1    0.305687   -0.122675    0.965960    11.00000    0.01372
C8    1    0.527391   -0.425181    1.397127    11.00000    0.01761
C10   1    0.218733   -0.015086    0.988852    11.00000    0.01358
C11   1    0.506123   -0.299762    1.412290    11.00000    0.01349
C12   1    0.274157    0.041976    0.865137    11.00000    0.01714
C13   1    0.292655   -0.214332    1.145963    11.00000    0.01203
C14   1    0.423905   -0.315516    1.316144    11.00000    0.01314
C15   1    0.292805   -0.331356    1.193426    11.00000    0.01587
C16   1    0.463481   -0.242708    1.355395    11.00000    0.01235
C17   1    0.525745   -0.231742    1.483202    11.00000    0.01641
C18   1    0.463275   -0.101364    1.350968    11.00000    0.01467
C19   1    0.088951   -0.314994    1.144020    11.00000    0.02107
C20   1    0.164365   -0.286652    1.043657    11.00000    0.01455
C21   1    0.313575   -0.047750    0.891964    11.00000    0.01655
C22   1    0.566929   -0.473976    1.453696    11.00000    0.02076
C23   1    0.563755   -0.289935    1.537401    11.00000    0.01979
C24   1    0.335995   -0.360967    1.247891    11.00000    0.01473
C25   1    0.111381   -0.329678    1.061565    11.00000    0.01821
C26   1    0.120236   -0.257018    1.208505    11.00000    0.02306
C27   1    0.379882   -0.157077    1.210532    11.00000    0.01236
C28   1    0.195153   -0.228225    1.109108    11.00000    0.01036
C29   1    0.173004   -0.213205    1.190843    11.00000    0.01735
N1    2    0.249362   -0.181619    1.091196    11.00000    0.01279
N2    2    0.584452   -0.410481    1.523851    11.00000    0.02138
N3    2    0.463938    0.010862    1.351655    11.00000    0.02357
HKLF   4




REM    Unknown Structure 1 in Pbcn
REM wR2 = 0.2967, GooF = S = 2.065, Restrained GooF = 2.065 for all data
REM R1 = 0.0955 for 2671 Fo > 4sig(Fo) and 0.1151 for all 3395 data
REM 117 parameters refined using 0 restraints

END  
     
WGHT      0.1491     16.7739 

REM Highest difference peak  0.944,  deepest hole -0.380,  1-sigma level  0.116
Q1    1   0.1874 -0.0023  1.0213  11.00000  0.05    0.94
Q2    1   0.3339 -0.1806  0.9820  11.00000  0.05    0.87
Q3    1   0.3343 -0.4498  1.2811  11.00000  0.05    0.83
Q4    1   0.4104 -0.0953  1.2153  11.00000  0.05    0.83
Q5    1   0.1990  0.1190  0.8947  11.00000  0.05    0.82
Q6    1   0.2605 -0.3963  1.1865  11.00000  0.05    0.79
Q7    1   0.1789 -0.2984  0.9871  11.00000  0.05    0.79
Q8    1   0.3495 -0.0593  0.8576  11.00000  0.05    0.78
Q9    1   0.3400 -0.0434  1.1254  11.00000  0.05    0.77
Q10   1   0.5103 -0.1458  1.4959  11.00000  0.05    0.76
Q11   1   0.2824  0.0894  0.8065  11.00000  0.05    0.75
Q12   1   0.0490 -0.3516  1.1588  11.00000  0.05    0.75
Q13   1   0.5785 -0.2507  1.5929  11.00000  0.05    0.74
Q14   1   0.1977 -0.1711  1.2391  11.00000  0.05    0.73
Q15   1   0.5826 -0.5601  1.4427  11.00000  0.05    0.73
Q16   1   0.4218 -0.4166  1.3387  11.00000  0.05    0.72
Q17   1   0.5179 -0.4752  1.3459  11.00000  0.05    0.72
Q18   1   0.0872 -0.3733  1.0158  11.00000  0.05    0.69
Q19   1   0.1072 -0.2425  1.2754  11.00000  0.05    0.65
Q20   1   0.1003 -0.2893  1.1815  11.00000  0.05    0.56
