TITL   Unknown Structure 1 in Pbcn 
CELL   0.71073   24.4603   10.1791   15.4796   90.000   90.000   90.000 
ZERR     4        0.0009    0.0003    0.0006    0.000    0.000    0.000 
LATT    1 
SYMM   1/2-X,1/2-Y,1/2+Z 
SYMM   1/2+X,1/2-Y,-Z 
SYMM   -X,+Y,1/2-Z 
SFAC  C 
UNIT  4 
OMIT        4.00    180.00 
 
L.S. 4 
BOND 
FMAP 2 
PLAN 20 
 
MOLE   1 
Q1    1  0.2274  0.0555  0.9131 11.000000  0.05  130.11 
Q2    1  0.3797 -0.2743  1.2593 11.000000  0.05  127.94 
Q3    1  0.2495 -0.1833  1.0918 11.000000  0.05  127.52 
Q4    1  0.2575 -0.1074  1.0154 11.000000  0.05  121.53 
Q5    1  0.4636  0.0108  1.3522 11.000000  0.05  113.91 
Q6    1  0.3363 -0.1257  1.1570 11.000000  0.05  112.75 
Q7    1  0.3046 -0.1215  0.9659 11.000000  0.05  112.50 
Q8    1  0.5275 -0.4253  1.3981 11.000000  0.05  112.12 
Q9    1  0.5851 -0.4089  1.5235 11.000000  0.05  111.77 
Q10   1  0.2185 -0.0168  0.9887 11.000000  0.05  110.93 
Q11   1  0.5069 -0.2986  1.4121 11.000000  0.05  110.79 
Q12   1  0.2742  0.0392  0.8626 11.000000  0.05  110.65 
Q13   1  0.2915 -0.2135  1.1473 11.000000  0.05  109.89 
Q14   1  0.4240 -0.3143  1.3158 11.000000  0.05  109.75 
Q15   1  0.2930 -0.3309  1.1939 11.000000  0.05  108.25 
Q16   1  0.4628 -0.2434  1.3543 11.000000  0.05  107.79 
Q17   1  0.5262 -0.2328  1.4822 11.000000  0.05  104.26 
Q18   1  0.4634 -0.1016  1.3496 11.000000  0.05  103.96 
Q19   1  0.0887 -0.3171  1.1411 11.000000  0.05  102.40 
Q20   1  0.1653 -0.2826  1.0425 11.000000  0.05  101.79 
Q21   1  0.3123 -0.0508  0.8903 11.000000  0.05   99.41 
Q22   1  0.5660 -0.4720  1.4533 11.000000  0.05   98.97 
Q23   1  0.5648 -0.2909  1.5367 11.000000  0.05   97.80 
Q24   1  0.3377 -0.3612  1.2464 11.000000  0.05   97.09 
Q25   1  0.1119 -0.3299  1.0638 11.000000  0.05   96.86 
Q26   1  0.1210 -0.2591  1.2084 11.000000  0.05   96.68 
Q27   1  0.3799 -0.1598  1.2117 11.000000  0.05   95.27 
Q28   1  0.1962 -0.2272  1.1078 11.000000  0.05   95.12 
Q29   1  0.1722 -0.2098  1.1917 11.000000  0.05   88.37 
Q30   1  0.3771 -0.1435  1.0554 11.000000  0.05   30.04 
Q31   1  0.1837  0.0095  1.0219 11.000000  0.05   27.13 
Q32   1  0.1817 -0.2948  0.9864 11.000000  0.05   26.79 
Q34   1  0.2240 -0.3102  1.1414 11.000000  0.05   25.70 
Q35   1  0.3117 -0.1790  1.2838 11.000000  0.05   25.30 
Q36   1  0.5781 -0.3781  1.6058 11.000000  0.05   24.91 
Q38   1  0.0492 -0.3696  1.1763 11.000000  0.05   22.88 
MOLE   2 
Q33   1  0.0767  0.0780  0.7390 11.000000  0.05   26.41 
MOLE   3 
Q37   1 -0.0029  0.1325  0.8375 11.000000  0.05   23.78 
HKLF   4                                                                        
END  
